Version identifier: 22.1.0.0 | 2022-03-09 | 1a383f8ce
CPXPARAM_Threads                                 1
CPXPARAM_MIP_Strategy_VariableSelect             3
CPXPARAM_TimeLimit                               600
Tried aggregator 1 time.
Reduced MIP has 4520 rows, 18000 columns, and 108809 nonzeros.
Reduced MIP has 14500 binaries, 3500 generals, 0 SOSs, and 0 indicators.
Presolve time = 0.06 sec. (44.19 ticks)
Found incumbent of value 3147.000000 after 0.17 sec. (114.04 ticks)
Probing time = 0.01 sec. (6.05 ticks)
Tried aggregator 1 time.
Detecting symmetries...
Reduced MIP has 4520 rows, 18000 columns, and 108809 nonzeros.
Reduced MIP has 14500 binaries, 3500 generals, 0 SOSs, and 0 indicators.
Presolve time = 0.08 sec. (55.39 ticks)
Probing time = 0.01 sec. (6.05 ticks)
Clique table members: 510.
MIP emphasis: balance optimality and feasibility.
MIP search method: dynamic search.
Parallel mode: none, using 1 thread.
Root relaxation solution time = 4.49 sec. (3824.69 ticks)

        Nodes                                         Cuts/
   Node  Left     Objective  IInf  Best Integer    Best Bound    ItCnt     Gap

*     0+    0                         3147.0000        0.0000           100.00%
      0     0        0.0000  3678     3147.0000        0.0000    10786  100.00%
*     0+    0                          679.0000        0.0000           100.00%
      0     0        0.0000  1320      679.0000   ZeroHalf: 6    12088  100.00%
      0     0        0.0000  2062      679.0000     Cuts: 230    22205  100.00%
      0     0        0.0000  1192      679.0000  ZeroHalf: 10    23809  100.00%
*     0+    0                          492.0000        0.0000           100.00%
*     0+    0                          488.0000        0.0000           100.00%
      0     0  -1.00000e+75     0      488.0000        0.0000    23809  100.00%
      0     0        0.0000  1374      488.0000 ZeroHalf: 149    28355  100.00%
*     0+    0                           36.0000        0.0000           100.00%
*     0+    0                           26.0000        0.0000           100.00%
*     0+    0                           24.0000        0.0000           100.00%
*     0+    0                           21.0000        0.0000           100.00%
*     0+    0                           20.0000        0.0000           100.00%
      0     0  -1.00000e+75     0       20.0000        0.0000    28355  100.00%
Detecting symmetries...
      0     2        0.0000   316       20.0000        0.0000    28355  100.00%
Elapsed time = 78.26 sec. (68229.22 ticks, tree = 0.01 MB, solutions = 9)
      1     3        0.0000  1596       20.0000        0.0000    65851  100.00%
      2     4        0.0000   428       20.0000        0.0000    73103  100.00%
      3     5        0.0000   448       20.0000        0.0000    82982  100.00%
      4     6        0.0000   437       20.0000        0.0000    83334  100.00%
      5     7        0.0000   443       20.0000        0.0000    86975  100.00%
      6     8        0.0000   422       20.0000        0.0000    90864  100.00%
      7     9        0.0000   497       20.0000        0.0000    96703  100.00%
      8    10        0.0000   467       20.0000        0.0000    98371  100.00%
      9    11        0.0000   453       20.0000        0.0000   100992  100.00%
     10    12        0.0000   612       20.0000        0.0000   105458  100.00%
Elapsed time = 130.64 sec. (115878.30 ticks, tree = 0.23 MB, solutions = 9)
     11    13        0.0000   447       20.0000        0.0000   106123  100.00%
     12    14        0.0000   509       20.0000        0.0000   107033  100.00%
     14    16        0.0000   533       20.0000        0.0000   108076  100.00%
     15    17        0.0000   593       20.0000        0.0000   110659  100.00%
     16    18        0.0000   736       20.0000        0.0000   124082  100.00%
     18    20        0.0000   560       20.0000        0.0000   146856  100.00%
     19    21        0.0000   518       20.0000        0.0000   150797  100.00%
     20    22        0.0000   484       20.0000        0.0000   154694  100.00%
     21    23        0.0000   484       20.0000        0.0000   154700  100.00%
     22    24        0.0000   555       20.0000        0.0000   157519  100.00%
Elapsed time = 160.11 sec. (141207.67 ticks, tree = 0.71 MB, solutions = 9)
     23    25        0.0000   684       20.0000        0.0000   171206  100.00%
     24    26        0.0000   546       20.0000        0.0000   175622  100.00%
     25    27        0.0000   575       20.0000        0.0000   178017  100.00%
     26    28        0.0000   552       20.0000        0.0000   179392  100.00%
     27    29        0.0000   509       20.0000        0.0000   183343  100.00%
     29    31        0.0000   450       20.0000        0.0000   185801  100.00%
     30    32        0.0000   509       20.0000        0.0000   187254  100.00%
     32    34        0.0000  1092       20.0000        0.0000   196597  100.00%
     33    35        0.0000   487       20.0000        0.0000   197289  100.00%
     35    37        0.0000   468       20.0000        0.0000   198152  100.00%
Elapsed time = 198.04 sec. (174847.18 ticks, tree = 1.20 MB, solutions = 9)
     37    39        0.0000   512       20.0000        0.0000   205618  100.00%
     38    40        0.0000   442       20.0000        0.0000   209847  100.00%
     39    41       -0.0000   904       20.0000        0.0000   221181  100.00%
     40    42        0.0000   449       20.0000        0.0000   228600  100.00%
     41    43        0.0000   478       20.0000        0.0000   240974  100.00%
     43    45        0.0000   535       20.0000        0.0000   253893  100.00%
     44    46        0.0000   442       20.0000        0.0000   256296  100.00%
     45    47       -0.0000  1107       20.0000        0.0000   272965  100.00%
     46    48        0.0000   441       20.0000        0.0000   273934  100.00%
     47    49        0.0000   445       20.0000        0.0000   283314  100.00%
Elapsed time = 248.65 sec. (220455.79 ticks, tree = 1.58 MB, solutions = 9)
     49    51        0.0000   466       20.0000        0.0000   289027  100.00%
     50    52        0.0000   447       20.0000        0.0000   289203  100.00%
     51    53        0.0000   579       20.0000        0.0000   294755  100.00%
     52    54        0.0000   437       20.0000        0.0000   295562  100.00%
     53    55        0.0000   492       20.0000        0.0000   301962  100.00%
     54    56        0.0000   453       20.0000        0.0000   307876  100.00%
     55    57        0.0000   573       20.0000        0.0000   319737  100.00%
     56    58        0.0000   438       20.0000        0.0000   329160  100.00%
     58    60        0.0000   455       20.0000        0.0000   334308  100.00%
     59    61        0.0000   525       20.0000        0.0000   337196  100.00%
Elapsed time = 292.96 sec. (260085.98 ticks, tree = 1.72 MB, solutions = 9)
     60    62        0.0000   468       20.0000        0.0000   337888  100.00%
     62    64        0.0000   454       20.0000        0.0000   339069  100.00%
     63    65        0.0000   502       20.0000        0.0000   342918  100.00%
     65    67        0.0000   356       20.0000        0.0000   345703  100.00%
     66    68        0.0000   688       20.0000        0.0000   354264  100.00%
     67    69        0.0000   466       20.0000        0.0000   367010  100.00%
     68    70        0.0000   521       20.0000        0.0000   368889  100.00%
     70    72        0.0000   632       20.0000        0.0000   372747  100.00%
     71    73        0.0000   464       20.0000        0.0000   373948  100.00%
     72    74        0.0000   596       20.0000        0.0000   381430  100.00%
Elapsed time = 329.52 sec. (292197.73 ticks, tree = 2.24 MB, solutions = 9)
     74    76        0.0000   486       20.0000        0.0000   386598  100.00%
     76    78        0.0000   509       20.0000        0.0000   392280  100.00%
     78    80        0.0000   410       20.0000        0.0000   393228  100.00%
     80    82        0.0000   450       20.0000        0.0000   395711  100.00%
     82    84        0.0000   436       20.0000        0.0000   396942  100.00%
     83    85        0.0000   529       20.0000        0.0000   402514  100.00%
     85    87        0.0000   423       20.0000        0.0000   403170  100.00%
     86    88        0.0000   491       20.0000        0.0000   408659  100.00%
     88    90        0.0000   575       20.0000        0.0000   418552  100.00%
     89    91        0.0000   442       20.0000        0.0000   419725  100.00%
Elapsed time = 365.68 sec. (324130.78 ticks, tree = 2.98 MB, solutions = 9)
     90    92        0.0000   507       20.0000        0.0000   423837  100.00%
     91    93        0.0000   427       20.0000        0.0000   424912  100.00%
     92    94        0.0000   437       20.0000        0.0000   428909  100.00%
     94    96        0.0000   515       20.0000        0.0000   433472  100.00%
     96    98        0.0000   512       20.0000        0.0000   440623  100.00%
     98   100       -0.0000   570       20.0000        0.0000   449326  100.00%
     99   101        0.0000   420       20.0000        0.0000   450056  100.00%
    100   102        0.0000   517       20.0000        0.0000   455110  100.00%
    102   104       -0.0000  1149       20.0000        0.0000   464649  100.00%
    104   106        0.0000  1402       20.0000        0.0000   477408  100.00%
Elapsed time = 413.38 sec. (366451.60 ticks, tree = 3.55 MB, solutions = 9)
    106   108        0.0000  1215       20.0000        0.0000   491894  100.00%
    108   110        0.0000   484       20.0000        0.0000   497407  100.00%
    110   112        0.0000   341       20.0000        0.0000   505812  100.00%
    111   113        0.0000   350       20.0000        0.0000   510712  100.00%
    112   114        0.0000   356       20.0000        0.0000   511353  100.00%
    113   115        0.0000   490       20.0000        0.0000   513200  100.00%
    114   116        0.0000   369       20.0000        0.0000   514207  100.00%
    115   117        0.0000   519       20.0000        0.0000   521040  100.00%
    116   118        0.0000   366       20.0000        0.0000   522096  100.00%
    117   119        0.0000   931       20.0000        0.0000   530418  100.00%
Elapsed time = 457.60 sec. (405643.70 ticks, tree = 4.01 MB, solutions = 9)
    118   120        0.0000   484       20.0000        0.0000   555839  100.00%
    119   121        0.0000   384       20.0000        0.0000   565367  100.00%
    120   122        0.0000   520       20.0000        0.0000   569631  100.00%
    121   123        0.0000   400       20.0000        0.0000   570338  100.00%
    122   124        0.0000   425       20.0000        0.0000   575962  100.00%
    124   126        0.0000   398       20.0000        0.0000   576676  100.00%
    125   127        0.0000   403       20.0000        0.0000   577808  100.00%
    126   128        0.0000   382       20.0000        0.0000   578971  100.00%
    127   129        0.0000   429       20.0000        0.0000   582460  100.00%
    130   132        0.0000   436       20.0000        0.0000   589247  100.00%
Elapsed time = 501.33 sec. (444428.92 ticks, tree = 4.51 MB, solutions = 9)
    132   134        0.0000   317       20.0000        0.0000   598835  100.00%
    133   135        0.0000   563       20.0000        0.0000   606228  100.00%
    136   138        0.0000   386       20.0000        0.0000   613347  100.00%
    138   140        0.0000   220       20.0000        0.0000   619437  100.00%
    139   141        0.1083  1450       20.0000        0.0000   631355  100.00%
    141   143        0.0000   253       20.0000        0.0000   632551  100.00%
    143   145        0.0000   346       20.0000        0.0000   640929  100.00%
    145   147        0.0000   332       20.0000        0.0000   646734  100.00%
    147   149        0.0000   408       20.0000        0.0000   658104  100.00%
    149   151        0.0000   303       20.0000        0.0000   664495  100.00%
Elapsed time = 561.59 sec. (497577.96 ticks, tree = 5.22 MB, solutions = 9)
    151   153        0.0000   302       20.0000        0.0000   669674  100.00%
    153   155        0.0000   448       20.0000        0.0000   679444  100.00%
    155   157        0.0000   230       20.0000        0.0000   684549  100.00%
    156   158        0.0000   423       20.0000        0.0000   690472  100.00%
    158   160        0.0000   393       20.0000        0.0000   701429  100.00%
    161   163        0.0000   230       20.0000        0.0000   703432  100.00%

Zero-half cuts applied:  52
Gomory fractional cuts applied:  2

Root node processing (before b&c):
  Real time             =   78.22 sec. (68196.37 ticks)
Sequential b&c:
  Real time             =  521.79 sec. (463660.12 ticks)
                          ------------
Total (root+branch&cut) =  600.01 sec. (531856.49 ticks)
Primal number of violations:	20
Dual number of violations:	0
Status:	Feasible
Time:	600.03
Sequence:
	19
	6
	18
	19
	12
	2
	19
	12
	2
	19
	12
	1
	14
	10
	4
	8
	10
	18
	3
	9
	1
	3
	9
	5
	3
	9
	18
	3
	9
	5
	3
	13
	15
	3
	13
	11
	3
	13
	11
	14
	0
	11
	14
	0
	11
	3
	13
	15
	14
	0
	15
	3
	13
	11
	14
	0
	11
	14
	0
	11
	14
	2
	9
	14
	2
	9
	14
	2
	9
	14
	2
	9
	14
	2
	9
	14
	18
	10
	17
	1
	10
	17
	4
	10
	17
	5
	10
	8
	1
	10
	8
	1
	10
	8
	1
	10
	8
	4
	10
	8
	4
	10
	8
	2
	0
	8
	7
	13
	8
	7
	13
	8
	7
	2
	16
	6
	2
	19
	12
	2
	19
	2
	12
	19
	2
	12
	19
	1
	18
	19
	12
	5
	16
	15
	18
	0
	11
	2
	1
	16
	15
	7
	16
	1
	11
	16
	6
	16
	19
	18
	15
	16
	1
	18
	15
	4
	16
	15
	1
	16
	1
	6
	16
	16
	15
	2
	3
	15
	5
	16
	15
	5
	16
	15
	2
	3
	9
	18
	14
	9
	4
	14
	9
	4
	14
	9
	18
	14
	0
	11
	3
	13
	11
	14
	0
	11
	3
	13
	11
	3
	13
	11
	3
	13
	11
	3
	13
	11
	14
	0
	11
	3
	13
	15
	14
	0
	11
	14
	0
	15
	3
	5
	9
	3
	5
	9
	3
	5
	9
	3
	5
	0
	8
	7
	0
	17
	7
	0
	8
	7
	13
	8
	7
	0
	17
	7
	13
	8
	7
	13
	8
	7
	13
	8
	7
	13
	8
	7
	13
	8
	7
	13
	8
	7
	13
	8
	7
	0
	17
	7
	0
	17
	7
	0
	17
	7
	0
	17
	7
	0
	4
	8
	10
	18
	17
	10
	4
	8
	10
	2
	17
	10
	18
	17
	10
	5
	8
	10
	18
	17
	10
	5
	8
	10
	18
	17
	10
	18
	17
	10
	5
	5
	19
	6
	5
	19
	6
	5
	19
	6
	4
	19
	12
	2
	16
	7
	2
	16
	6
	7
	16
	5
	15
	16
	5
	12
	19
	18
	1
	19
	2
	12
	19
	4
	6
	19
	4
	6
	19
	4
	6
	19
	4
	6
	19
	4
	6
	19
	4
	6
	19
	5
	6
	19
	5
	12
	19
	18
	6
	19
	2
	12
	19
	2
	18
	9
	14
	18
	9
	14
	4
	9
	3
	18
	9
	14
	18
	10
	17
	18
	10
	17
	18
	10
	17
	18
	10
	8
	1
	10
	17
	18
	10
	17
	18
	10
	3
	18
	9
	14
	18
	9
	3
	4
	9
	3
	5
	9
	14
	4
	10
	8
	4
	13
	8
	7
	13
	14
	11
	0
	14
	12
	10
	3
	2
	9
	2
	14
	7
	13
	14
	11
	0
	3
	11
	13
	18
	1
	19
	6
	1
	19
	12
	2
	19
	6
	4
	19
	6
	18
	19
	6
	18
	19
	6
	4
	19
	6
	1
	19
	6
	1
	16
	15
	5
	16
	15
	5
	16
	15
	5
	16
	15
	5
	16
	15
	5
	16
	15
	5
	16
	2
	12
	19
	4
	6
	19
	18
	1
	19
